;Number of predicates (nodes) = 15
;Number of variables = 4
;Number of clauses = 19
;
(set-logic HORN)
(declare-fun assign_287_29_5 (Int Int Int Int Int Int Int Int Int Int) Bool)
(declare-fun assert_278_28_5 (Int Int Int Int Int Int Int Int Int Int) Bool)
(declare-fun while_290_26_1 (Int Int Int Int Int Int Int Int Int Int) Bool)
(declare-fun assign_210_25_1 (Int Int Int Int Int Int Int Int Int Int) Bool)
(declare-fun assign_201_22_5 (Int Int Int Int Int Int Int Int Int Int) Bool)
(declare-fun arrayassign_192_21_5 (Int Int Int Int Int Int Int Int Int Int) Bool)
(declare-fun while_204_19_1 (Int Int Int Int Int Int Int Int Int Int) Bool)
(declare-fun assign_128_18_1 (Int Int Int Int Int Int Int Int Int Int) Bool)
(declare-fun assign_119_15_5 (Int Int Int Int Int Int Int Int Int Int) Bool)
(declare-fun arrayassign_110_14_5 (Int Int Int Int Int Int Int Int Int Int) Bool)
(declare-fun while_122_12_1 (Int Int Int Int Int Int Int Int Int Int) Bool)
(declare-fun assign_58_11_8 (Int Int Int Int Int Int Int Int Int Int) Bool)
(declare-fun assign_52_9_1 (Int Int Int Int Int Int Int Int Int Int) Bool)
(declare-fun end (Int Int Int Int Int Int Int Int Int Int) Bool)
(declare-fun start (Int Int Int Int Int Int Int Int Int Int) Bool)
(assert (forall ((N Int) (a0_ind Int) (a0_val Int) (a1_ind Int) (a1_val Int) (a_copy0_ind Int) (a_copy0_val Int) (a_copy1_ind Int) (a_copy1_val Int) (i Int)) (=> (and (< a0_ind a1_ind) (< a_copy0_ind a_copy1_ind)) (start a_copy0_ind a_copy0_val a_copy1_ind a_copy1_val a0_ind a0_val a1_ind a1_val N i))))
(assert (forall ((N Int) (a0_ind Int) (a0_val Int) (a1_ind Int) (a1_val Int) (a_copy0_ind Int) (a_copy0_val Int) (a_copy1_ind Int) (a_copy1_val Int) (i Int)) (=> (and (< a0_ind a1_ind) (< a_copy0_ind a_copy1_ind) (start a_copy0_ind a_copy0_val a_copy1_ind a_copy1_val a0_ind a0_val a1_ind a1_val N i)) (assign_52_9_1 a_copy0_ind a_copy0_val a_copy1_ind a_copy1_val a0_ind a0_val a1_ind a1_val N i))))
;
;(assign)  N := Support.random()
(assert (forall ((N Int) (a0_ind Int) (a0_val Int) (a1_ind Int) (a1_val Int) (a_copy0_ind Int) (a_copy0_val Int) (a_copy1_ind Int) (a_copy1_val Int) (i Int) (rnd Int)) (=> (and (< a0_ind a1_ind) (< a_copy0_ind a_copy1_ind) (assign_52_9_1 a_copy0_ind a_copy0_val a_copy1_ind a_copy1_val a0_ind a0_val a1_ind a1_val N i)) (assign_58_11_8 a_copy0_ind a_copy0_val a_copy1_ind a_copy1_val a0_ind a0_val a1_ind a1_val rnd i))))
;
;(assign)  i := 0
(assert (forall ((N Int) (a0_ind Int) (a0_val Int) (a1_ind Int) (a1_val Int) (a_copy0_ind Int) (a_copy0_val Int) (a_copy1_ind Int) (a_copy1_val Int) (i Int)) (=> (and (< a0_ind a1_ind) (< a_copy0_ind a_copy1_ind) (assign_58_11_8 a_copy0_ind a_copy0_val a_copy1_ind a_copy1_val a0_ind a0_val a1_ind a1_val N i)) (while_122_12_1 a_copy0_ind a_copy0_val a_copy1_ind a_copy1_val a0_ind a0_val a1_ind a1_val N 0))))
;
;(while)   while((i<N))
(assert (forall ((N Int) (a0_ind Int) (a0_val Int) (a1_ind Int) (a1_val Int) (a_copy0_ind Int) (a_copy0_val Int) (a_copy1_ind Int) (a_copy1_val Int) (i Int)) (=> (and (< a0_ind a1_ind) (< a_copy0_ind a_copy1_ind) (while_122_12_1 a_copy0_ind a_copy0_val a_copy1_ind a_copy1_val a0_ind a0_val a1_ind a1_val N i) (< i N)) (arrayassign_110_14_5 a_copy0_ind a_copy0_val a_copy1_ind a_copy1_val a0_ind a0_val a1_ind a1_val N i))))
(assert (forall ((N Int) (a0_ind Int) (a0_val Int) (a1_ind Int) (a1_val Int) (a_copy0_ind Int) (a_copy0_val Int) (a_copy1_ind Int) (a_copy1_val Int) (i Int)) (=> (and (< a0_ind a1_ind) (< a_copy0_ind a_copy1_ind) (while_122_12_1 a_copy0_ind a_copy0_val a_copy1_ind a_copy1_val a0_ind a0_val a1_ind a1_val N i) (not (< i N))) (assign_128_18_1 a_copy0_ind a_copy0_val a_copy1_ind a_copy1_val a0_ind a0_val a1_ind a1_val N i))))
;
;(aassign) a_copy[i] := a[i]
(assert (forall ((N Int) (a0_ind Int) (a0_val Int) (a1_ind Int) (a1_val Int) (a_copy0_ind Int) (a_copy0_val Int) (a_copy1_ind Int) (a_copy1_val Int) (i Int) (tmp_select_a Int) (tmp_store_a_copy0_ind Int) (tmp_store_a_copy0_val Int) (tmp_store_a_copy1_ind Int) (tmp_store_a_copy1_val Int)) (=> (and (< a0_ind a1_ind) (< a_copy0_ind a_copy1_ind) (arrayassign_110_14_5 a_copy0_ind a_copy0_val a_copy1_ind a_copy1_val a0_ind a0_val a1_ind a1_val N i) (or (and (= a0_ind i) (= tmp_select_a a0_val)) (and (= a1_ind i) (= tmp_select_a a1_val)) (and (< i a0_ind) (< i a1_ind) (arrayassign_110_14_5 a_copy0_ind a_copy0_val a_copy1_ind a_copy1_val i tmp_select_a a1_ind a1_val N i) (< i a0_ind) (arrayassign_110_14_5 a_copy0_ind a_copy0_val a_copy1_ind a_copy1_val i tmp_select_a a0_ind a0_val N i)) (and (< a0_ind i) (< i a1_ind) (< i a1_ind) (arrayassign_110_14_5 a_copy0_ind a_copy0_val a_copy1_ind a_copy1_val i tmp_select_a a1_ind a1_val N i) (< a0_ind i) (arrayassign_110_14_5 a_copy0_ind a_copy0_val a_copy1_ind a_copy1_val a0_ind a0_val i tmp_select_a N i)) (and (< a1_ind i) (< a1_ind i) (arrayassign_110_14_5 a_copy0_ind a_copy0_val a_copy1_ind a_copy1_val a1_ind a1_val i tmp_select_a N i) (< a0_ind i) (arrayassign_110_14_5 a_copy0_ind a_copy0_val a_copy1_ind a_copy1_val a0_ind a0_val i tmp_select_a N i))) (= tmp_store_a_copy0_ind a_copy0_ind) (= tmp_store_a_copy1_ind a_copy1_ind) (or (and (= a_copy0_ind i) (= tmp_store_a_copy1_val a_copy1_val) (= tmp_store_a_copy0_val tmp_select_a)) (and (= a_copy1_ind i) (= tmp_store_a_copy0_val a_copy0_val) (= tmp_store_a_copy1_val tmp_select_a)) (and (not (= a_copy0_ind i)) (not (= a_copy1_ind i)) (= tmp_store_a_copy0_val a_copy0_val) (= tmp_store_a_copy1_val a_copy1_val)))) (assign_119_15_5 tmp_store_a_copy0_ind tmp_store_a_copy0_val tmp_store_a_copy1_ind tmp_store_a_copy1_val a0_ind a0_val a1_ind a1_val N i))))
;
;(assign)  i := (i+1)
(assert (forall ((N Int) (a0_ind Int) (a0_val Int) (a1_ind Int) (a1_val Int) (a_copy0_ind Int) (a_copy0_val Int) (a_copy1_ind Int) (a_copy1_val Int) (i Int)) (=> (and (< a0_ind a1_ind) (< a_copy0_ind a_copy1_ind) (assign_119_15_5 a_copy0_ind a_copy0_val a_copy1_ind a_copy1_val a0_ind a0_val a1_ind a1_val N i)) (while_122_12_1 a_copy0_ind a_copy0_val a_copy1_ind a_copy1_val a0_ind a0_val a1_ind a1_val N (+ i 1)))))
;
;(assign)  i := 0
(assert (forall ((N Int) (a0_ind Int) (a0_val Int) (a1_ind Int) (a1_val Int) (a_copy0_ind Int) (a_copy0_val Int) (a_copy1_ind Int) (a_copy1_val Int) (i Int)) (=> (and (< a0_ind a1_ind) (< a_copy0_ind a_copy1_ind) (assign_128_18_1 a_copy0_ind a_copy0_val a_copy1_ind a_copy1_val a0_ind a0_val a1_ind a1_val N i)) (while_204_19_1 a_copy0_ind a_copy0_val a_copy1_ind a_copy1_val a0_ind a0_val a1_ind a1_val N 0))))
;
;(while)   while((i<N))
(assert (forall ((N Int) (a0_ind Int) (a0_val Int) (a1_ind Int) (a1_val Int) (a_copy0_ind Int) (a_copy0_val Int) (a_copy1_ind Int) (a_copy1_val Int) (i Int)) (=> (and (< a0_ind a1_ind) (< a_copy0_ind a_copy1_ind) (while_204_19_1 a_copy0_ind a_copy0_val a_copy1_ind a_copy1_val a0_ind a0_val a1_ind a1_val N i) (< i N)) (arrayassign_192_21_5 a_copy0_ind a_copy0_val a_copy1_ind a_copy1_val a0_ind a0_val a1_ind a1_val N i))))
(assert (forall ((N Int) (a0_ind Int) (a0_val Int) (a1_ind Int) (a1_val Int) (a_copy0_ind Int) (a_copy0_val Int) (a_copy1_ind Int) (a_copy1_val Int) (i Int)) (=> (and (< a0_ind a1_ind) (< a_copy0_ind a_copy1_ind) (while_204_19_1 a_copy0_ind a_copy0_val a_copy1_ind a_copy1_val a0_ind a0_val a1_ind a1_val N i) (not (< i N))) (assign_210_25_1 a_copy0_ind a_copy0_val a_copy1_ind a_copy1_val a0_ind a0_val a1_ind a1_val N i))))
;
;(aassign) a[i] := a_copy[((N-i)-1)]
(assert (forall ((N Int) (a0_ind Int) (a0_val Int) (a1_ind Int) (a1_val Int) (a_copy0_ind Int) (a_copy0_val Int) (a_copy1_ind Int) (a_copy1_val Int) (i Int) (tmp_select_a_copy Int) (tmp_store_a0_ind Int) (tmp_store_a0_val Int) (tmp_store_a1_ind Int) (tmp_store_a1_val Int)) (=> (and (< a0_ind a1_ind) (< a_copy0_ind a_copy1_ind) (arrayassign_192_21_5 a_copy0_ind a_copy0_val a_copy1_ind a_copy1_val a0_ind a0_val a1_ind a1_val N i) (or (and (= a_copy0_ind (- (- N i) 1)) (= tmp_select_a_copy a_copy0_val)) (and (= a_copy1_ind (- (- N i) 1)) (= tmp_select_a_copy a_copy1_val)) (and (< (- (- N i) 1) a_copy0_ind) (< (- (- N i) 1) a_copy1_ind) (arrayassign_192_21_5 (- (- N i) 1) tmp_select_a_copy a_copy1_ind a_copy1_val a0_ind a0_val a1_ind a1_val N i) (< (- (- N i) 1) a_copy0_ind) (arrayassign_192_21_5 (- (- N i) 1) tmp_select_a_copy a_copy0_ind a_copy0_val a0_ind a0_val a1_ind a1_val N i)) (and (< a_copy0_ind (- (- N i) 1)) (< (- (- N i) 1) a_copy1_ind) (< (- (- N i) 1) a_copy1_ind) (arrayassign_192_21_5 (- (- N i) 1) tmp_select_a_copy a_copy1_ind a_copy1_val a0_ind a0_val a1_ind a1_val N i) (< a_copy0_ind (- (- N i) 1)) (arrayassign_192_21_5 a_copy0_ind a_copy0_val (- (- N i) 1) tmp_select_a_copy a0_ind a0_val a1_ind a1_val N i)) (and (< a_copy1_ind (- (- N i) 1)) (< a_copy1_ind (- (- N i) 1)) (arrayassign_192_21_5 a_copy1_ind a_copy1_val (- (- N i) 1) tmp_select_a_copy a0_ind a0_val a1_ind a1_val N i) (< a_copy0_ind (- (- N i) 1)) (arrayassign_192_21_5 a_copy0_ind a_copy0_val (- (- N i) 1) tmp_select_a_copy a0_ind a0_val a1_ind a1_val N i))) (= tmp_store_a0_ind a0_ind) (= tmp_store_a1_ind a1_ind) (or (and (= a0_ind i) (= tmp_store_a1_val a1_val) (= tmp_store_a0_val tmp_select_a_copy)) (and (= a1_ind i) (= tmp_store_a0_val a0_val) (= tmp_store_a1_val tmp_select_a_copy)) (and (not (= a0_ind i)) (not (= a1_ind i)) (= tmp_store_a0_val a0_val) (= tmp_store_a1_val a1_val)))) (assign_201_22_5 a_copy0_ind a_copy0_val a_copy1_ind a_copy1_val tmp_store_a0_ind tmp_store_a0_val tmp_store_a1_ind tmp_store_a1_val N i))))
;
;(assign)  i := (i+1)
(assert (forall ((N Int) (a0_ind Int) (a0_val Int) (a1_ind Int) (a1_val Int) (a_copy0_ind Int) (a_copy0_val Int) (a_copy1_ind Int) (a_copy1_val Int) (i Int)) (=> (and (< a0_ind a1_ind) (< a_copy0_ind a_copy1_ind) (assign_201_22_5 a_copy0_ind a_copy0_val a_copy1_ind a_copy1_val a0_ind a0_val a1_ind a1_val N i)) (while_204_19_1 a_copy0_ind a_copy0_val a_copy1_ind a_copy1_val a0_ind a0_val a1_ind a1_val N (+ i 1)))))
;
;(assign)  i := 0
(assert (forall ((N Int) (a0_ind Int) (a0_val Int) (a1_ind Int) (a1_val Int) (a_copy0_ind Int) (a_copy0_val Int) (a_copy1_ind Int) (a_copy1_val Int) (i Int)) (=> (and (< a0_ind a1_ind) (< a_copy0_ind a_copy1_ind) (assign_210_25_1 a_copy0_ind a_copy0_val a_copy1_ind a_copy1_val a0_ind a0_val a1_ind a1_val N i)) (while_290_26_1 a_copy0_ind a_copy0_val a_copy1_ind a_copy1_val a0_ind a0_val a1_ind a1_val N 0))))
;
;(while)   while((i<N))
(assert (forall ((N Int) (a0_ind Int) (a0_val Int) (a1_ind Int) (a1_val Int) (a_copy0_ind Int) (a_copy0_val Int) (a_copy1_ind Int) (a_copy1_val Int) (i Int)) (=> (and (< a0_ind a1_ind) (< a_copy0_ind a_copy1_ind) (while_290_26_1 a_copy0_ind a_copy0_val a_copy1_ind a_copy1_val a0_ind a0_val a1_ind a1_val N i) (< i N)) (assert_278_28_5 a_copy0_ind a_copy0_val a_copy1_ind a_copy1_val a0_ind a0_val a1_ind a1_val N i))))
(assert (forall ((N Int) (a0_ind Int) (a0_val Int) (a1_ind Int) (a1_val Int) (a_copy0_ind Int) (a_copy0_val Int) (a_copy1_ind Int) (a_copy1_val Int) (i Int)) (=> (and (< a0_ind a1_ind) (< a_copy0_ind a_copy1_ind) (while_290_26_1 a_copy0_ind a_copy0_val a_copy1_ind a_copy1_val a0_ind a0_val a1_ind a1_val N i) (not (< i N))) (end a_copy0_ind a_copy0_val a_copy1_ind a_copy1_val a0_ind a0_val a1_ind a1_val N i))))
;
;(assert)  (a[i]==a_copy[((N-i)-1)])
(assert (forall ((N Int) (a0_ind Int) (a0_val Int) (a1_ind Int) (a1_val Int) (a_copy0_ind Int) (a_copy0_val Int) (a_copy1_ind Int) (a_copy1_val Int) (i Int) (tmp_select_a Int) (tmp_select_a_copy Int)) (=> (and (< a0_ind a1_ind) (< a_copy0_ind a_copy1_ind) (assert_278_28_5 a_copy0_ind a_copy0_val a_copy1_ind a_copy1_val a0_ind a0_val a1_ind a1_val N i) (or (and (= a0_ind i) (= tmp_select_a a0_val)) (and (= a1_ind i) (= tmp_select_a a1_val)) (and (< i a0_ind) (< i a1_ind) (assert_278_28_5 a_copy0_ind a_copy0_val a_copy1_ind a_copy1_val i tmp_select_a a1_ind a1_val N i) (< i a0_ind) (assert_278_28_5 a_copy0_ind a_copy0_val a_copy1_ind a_copy1_val i tmp_select_a a0_ind a0_val N i)) (and (< a0_ind i) (< i a1_ind) (< i a1_ind) (assert_278_28_5 a_copy0_ind a_copy0_val a_copy1_ind a_copy1_val i tmp_select_a a1_ind a1_val N i) (< a0_ind i) (assert_278_28_5 a_copy0_ind a_copy0_val a_copy1_ind a_copy1_val a0_ind a0_val i tmp_select_a N i)) (and (< a1_ind i) (< a1_ind i) (assert_278_28_5 a_copy0_ind a_copy0_val a_copy1_ind a_copy1_val a1_ind a1_val i tmp_select_a N i) (< a0_ind i) (assert_278_28_5 a_copy0_ind a_copy0_val a_copy1_ind a_copy1_val a0_ind a0_val i tmp_select_a N i))) (or (and (= a_copy0_ind (- (- N i) 1)) (= tmp_select_a_copy a_copy0_val)) (and (= a_copy1_ind (- (- N i) 1)) (= tmp_select_a_copy a_copy1_val)) (and (< (- (- N i) 1) a_copy0_ind) (< (- (- N i) 1) a_copy1_ind) (assert_278_28_5 (- (- N i) 1) tmp_select_a_copy a_copy1_ind a_copy1_val a0_ind a0_val a1_ind a1_val N i) (or (and (= a0_ind i) (= tmp_select_a a0_val)) (and (= a1_ind i) (= tmp_select_a a1_val)) (and (< i a0_ind) (< i a1_ind) (assert_278_28_5 (- (- N i) 1) tmp_select_a_copy a_copy1_ind a_copy1_val i tmp_select_a a1_ind a1_val N i) (< i a0_ind) (assert_278_28_5 (- (- N i) 1) tmp_select_a_copy a_copy1_ind a_copy1_val i tmp_select_a a0_ind a0_val N i)) (and (< a0_ind i) (< i a1_ind) (< i a1_ind) (assert_278_28_5 (- (- N i) 1) tmp_select_a_copy a_copy1_ind a_copy1_val i tmp_select_a a1_ind a1_val N i) (< a0_ind i) (assert_278_28_5 (- (- N i) 1) tmp_select_a_copy a_copy1_ind a_copy1_val a0_ind a0_val i tmp_select_a N i)) (and (< a1_ind i) (< a1_ind i) (assert_278_28_5 (- (- N i) 1) tmp_select_a_copy a_copy1_ind a_copy1_val a1_ind a1_val i tmp_select_a N i) (< a0_ind i) (assert_278_28_5 (- (- N i) 1) tmp_select_a_copy a_copy1_ind a_copy1_val a0_ind a0_val i tmp_select_a N i))) (< (- (- N i) 1) a_copy0_ind) (assert_278_28_5 (- (- N i) 1) tmp_select_a_copy a_copy0_ind a_copy0_val a0_ind a0_val a1_ind a1_val N i) (or (and (= a0_ind i) (= tmp_select_a a0_val)) (and (= a1_ind i) (= tmp_select_a a1_val)) (and (< i a0_ind) (< i a1_ind) (assert_278_28_5 (- (- N i) 1) tmp_select_a_copy a_copy0_ind a_copy0_val i tmp_select_a a1_ind a1_val N i) (< i a0_ind) (assert_278_28_5 (- (- N i) 1) tmp_select_a_copy a_copy0_ind a_copy0_val i tmp_select_a a0_ind a0_val N i)) (and (< a0_ind i) (< i a1_ind) (< i a1_ind) (assert_278_28_5 (- (- N i) 1) tmp_select_a_copy a_copy0_ind a_copy0_val i tmp_select_a a1_ind a1_val N i) (< a0_ind i) (assert_278_28_5 (- (- N i) 1) tmp_select_a_copy a_copy0_ind a_copy0_val a0_ind a0_val i tmp_select_a N i)) (and (< a1_ind i) (< a1_ind i) (assert_278_28_5 (- (- N i) 1) tmp_select_a_copy a_copy0_ind a_copy0_val a1_ind a1_val i tmp_select_a N i) (< a0_ind i) (assert_278_28_5 (- (- N i) 1) tmp_select_a_copy a_copy0_ind a_copy0_val a0_ind a0_val i tmp_select_a N i)))) (and (< a_copy0_ind (- (- N i) 1)) (< (- (- N i) 1) a_copy1_ind) (< (- (- N i) 1) a_copy1_ind) (assert_278_28_5 (- (- N i) 1) tmp_select_a_copy a_copy1_ind a_copy1_val a0_ind a0_val a1_ind a1_val N i) (or (and (= a0_ind i) (= tmp_select_a a0_val)) (and (= a1_ind i) (= tmp_select_a a1_val)) (and (< i a0_ind) (< i a1_ind) (assert_278_28_5 (- (- N i) 1) tmp_select_a_copy a_copy1_ind a_copy1_val i tmp_select_a a1_ind a1_val N i) (< i a0_ind) (assert_278_28_5 (- (- N i) 1) tmp_select_a_copy a_copy1_ind a_copy1_val i tmp_select_a a0_ind a0_val N i)) (and (< a0_ind i) (< i a1_ind) (< i a1_ind) (assert_278_28_5 (- (- N i) 1) tmp_select_a_copy a_copy1_ind a_copy1_val i tmp_select_a a1_ind a1_val N i) (< a0_ind i) (assert_278_28_5 (- (- N i) 1) tmp_select_a_copy a_copy1_ind a_copy1_val a0_ind a0_val i tmp_select_a N i)) (and (< a1_ind i) (< a1_ind i) (assert_278_28_5 (- (- N i) 1) tmp_select_a_copy a_copy1_ind a_copy1_val a1_ind a1_val i tmp_select_a N i) (< a0_ind i) (assert_278_28_5 (- (- N i) 1) tmp_select_a_copy a_copy1_ind a_copy1_val a0_ind a0_val i tmp_select_a N i))) (< a_copy0_ind (- (- N i) 1)) (assert_278_28_5 a_copy0_ind a_copy0_val (- (- N i) 1) tmp_select_a_copy a0_ind a0_val a1_ind a1_val N i) (or (and (= a0_ind i) (= tmp_select_a a0_val)) (and (= a1_ind i) (= tmp_select_a a1_val)) (and (< i a0_ind) (< i a1_ind) (assert_278_28_5 a_copy0_ind a_copy0_val (- (- N i) 1) tmp_select_a_copy i tmp_select_a a1_ind a1_val N i) (< i a0_ind) (assert_278_28_5 a_copy0_ind a_copy0_val (- (- N i) 1) tmp_select_a_copy i tmp_select_a a0_ind a0_val N i)) (and (< a0_ind i) (< i a1_ind) (< i a1_ind) (assert_278_28_5 a_copy0_ind a_copy0_val (- (- N i) 1) tmp_select_a_copy i tmp_select_a a1_ind a1_val N i) (< a0_ind i) (assert_278_28_5 a_copy0_ind a_copy0_val (- (- N i) 1) tmp_select_a_copy a0_ind a0_val i tmp_select_a N i)) (and (< a1_ind i) (< a1_ind i) (assert_278_28_5 a_copy0_ind a_copy0_val (- (- N i) 1) tmp_select_a_copy a1_ind a1_val i tmp_select_a N i) (< a0_ind i) (assert_278_28_5 a_copy0_ind a_copy0_val (- (- N i) 1) tmp_select_a_copy a0_ind a0_val i tmp_select_a N i)))) (and (< a_copy1_ind (- (- N i) 1)) (< a_copy1_ind (- (- N i) 1)) (assert_278_28_5 a_copy1_ind a_copy1_val (- (- N i) 1) tmp_select_a_copy a0_ind a0_val a1_ind a1_val N i) (or (and (= a0_ind i) (= tmp_select_a a0_val)) (and (= a1_ind i) (= tmp_select_a a1_val)) (and (< i a0_ind) (< i a1_ind) (assert_278_28_5 a_copy1_ind a_copy1_val (- (- N i) 1) tmp_select_a_copy i tmp_select_a a1_ind a1_val N i) (< i a0_ind) (assert_278_28_5 a_copy1_ind a_copy1_val (- (- N i) 1) tmp_select_a_copy i tmp_select_a a0_ind a0_val N i)) (and (< a0_ind i) (< i a1_ind) (< i a1_ind) (assert_278_28_5 a_copy1_ind a_copy1_val (- (- N i) 1) tmp_select_a_copy i tmp_select_a a1_ind a1_val N i) (< a0_ind i) (assert_278_28_5 a_copy1_ind a_copy1_val (- (- N i) 1) tmp_select_a_copy a0_ind a0_val i tmp_select_a N i)) (and (< a1_ind i) (< a1_ind i) (assert_278_28_5 a_copy1_ind a_copy1_val (- (- N i) 1) tmp_select_a_copy a1_ind a1_val i tmp_select_a N i) (< a0_ind i) (assert_278_28_5 a_copy1_ind a_copy1_val (- (- N i) 1) tmp_select_a_copy a0_ind a0_val i tmp_select_a N i))) (< a_copy0_ind (- (- N i) 1)) (assert_278_28_5 a_copy0_ind a_copy0_val (- (- N i) 1) tmp_select_a_copy a0_ind a0_val a1_ind a1_val N i) (or (and (= a0_ind i) (= tmp_select_a a0_val)) (and (= a1_ind i) (= tmp_select_a a1_val)) (and (< i a0_ind) (< i a1_ind) (assert_278_28_5 a_copy0_ind a_copy0_val (- (- N i) 1) tmp_select_a_copy i tmp_select_a a1_ind a1_val N i) (< i a0_ind) (assert_278_28_5 a_copy0_ind a_copy0_val (- (- N i) 1) tmp_select_a_copy i tmp_select_a a0_ind a0_val N i)) (and (< a0_ind i) (< i a1_ind) (< i a1_ind) (assert_278_28_5 a_copy0_ind a_copy0_val (- (- N i) 1) tmp_select_a_copy i tmp_select_a a1_ind a1_val N i) (< a0_ind i) (assert_278_28_5 a_copy0_ind a_copy0_val (- (- N i) 1) tmp_select_a_copy a0_ind a0_val i tmp_select_a N i)) (and (< a1_ind i) (< a1_ind i) (assert_278_28_5 a_copy0_ind a_copy0_val (- (- N i) 1) tmp_select_a_copy a1_ind a1_val i tmp_select_a N i) (< a0_ind i) (assert_278_28_5 a_copy0_ind a_copy0_val (- (- N i) 1) tmp_select_a_copy a0_ind a0_val i tmp_select_a N i)))))) (= tmp_select_a tmp_select_a_copy))))
(assert (forall ((N Int) (a0_ind Int) (a0_val Int) (a1_ind Int) (a1_val Int) (a_copy0_ind Int) (a_copy0_val Int) (a_copy1_ind Int) (a_copy1_val Int) (i Int)) (=> (and (< a0_ind a1_ind) (< a_copy0_ind a_copy1_ind) (assert_278_28_5 a_copy0_ind a_copy0_val a_copy1_ind a_copy1_val a0_ind a0_val a1_ind a1_val N i)) (assign_287_29_5 a_copy0_ind a_copy0_val a_copy1_ind a_copy1_val a0_ind a0_val a1_ind a1_val N i))))
;
;(assign)  i := (i+1)
(assert (forall ((N Int) (a0_ind Int) (a0_val Int) (a1_ind Int) (a1_val Int) (a_copy0_ind Int) (a_copy0_val Int) (a_copy1_ind Int) (a_copy1_val Int) (i Int)) (=> (and (< a0_ind a1_ind) (< a_copy0_ind a_copy1_ind) (assign_287_29_5 a_copy0_ind a_copy0_val a_copy1_ind a_copy1_val a0_ind a0_val a1_ind a1_val N i)) (while_290_26_1 a_copy0_ind a_copy0_val a_copy1_ind a_copy1_val a0_ind a0_val a1_ind a1_val N (+ i 1)))))
(check-sat)
